Route #1: 4 45 29 27 52 34 46 8 35 7 67
Route #2: 26 53 11 66 65 38 10 58 72 12
Route #3: 14 59 19 54 13 57 15 5 48 30 2
Route #4: 73 62 22 28 61 69 71 60 70 20 37 36 47 21 74
Route #5: 33 63 1 43 42 64 41 56 23 24 49 16
Route #6: 3 44 32 50 18 55 25 31 39 9 40
Route #7: 17 51 6 68 75
Cost 723